NAME: random-16-24892
TYPE: TSP
COMMENT: size=16 seed=24892
DIMENSION: 34
EDGE_WEIGHT_TYPE: EUC_2D
NODE_COORD_SECTION
+0 844 830
-0 844 830
+1 693 474
-1 611 170
+2 193 326
-2 218 117
+3 316 44
-3 894 981
+4 902 691
-4 959 943
+5 652 283
-5 408 524
+6 406 184
-6 325 757
+7 187 82
-7 151 908
+8 500 57
-8 186 646
+9 959 192
-9 272 514
+10 161 745
-10 320 168
+11 221 117
-11 242 938
+12 212 83
-12 779 999
+13 590 274
-13 382 912
+14 438 264
-14 856 447
+15 878 46
-15 111 581
+16 819 364
-16 756 10
PRECEDENCE_SECTION
+0 -0
+1 -1
+2 -2
+3 -3
+4 -4
+5 -5
+6 -6
+7 -7
+8 -8
+9 -9
+10 -10
+11 -11
+12 -12
+13 -13
+14 -14
+15 -15
+16 -16
EOF
